! PBE0 UKS def2-SVP def2/J deltaSCF DefGrid2 RIJCOSX TightSCF
! NODIIS MOREAD

%moinp "inp_orb_singlet.gbw"

%scf
pmom true
keepinitialref true
alphaconf 0,1
end

%maxcore 12000

* xyzfile 0 1 filename
%pal nprocs 1 end
%pal nprocs 14 end
