! PBE0 UKS def2-SVP def2/J DefGrid2 RIJCOSX TightSCF
%base "inp_orb_triplet"
%maxcore 12000
%pal
nprocs 4
end
* xyzfile 0 1 filename
%pal nprocs 14 end
%pal nprocs 14 end
